# Objective value = 38.0
xobj 38.0
x0_r1 -0.0
x1_r1 0.0
x2_r1 0.0
x3_r1 -0.0
y0_r1 -0.0
y1_r1 -0.0
y2_r1 -0.0
y3_r1 0.0
SH0_r1 -0.0
SL0_r1 -0.0
x4_r1 -0.0
x5_r1 -0.0
x6_r1 0.0
x7_r1 -0.0
y4_r1 -0.0
y5_r1 -0.0
y6_r1 -0.0
y7_r1 0.0
SH1_r1 -0.0
SL1_r1 0.0
x8_r1 0.0
x9_r1 -0.0
x10_r1 -0.0
x11_r1 -0.0
y8_r1 -0.0
y9_r1 -0.0
y10_r1 -0.0
y11_r1 -0.0
SH2_r1 -0.0
SL2_r1 -0.0
x12_r1 1.0
x13_r1 1.0
x14_r1 1.0
x15_r1 1.0
y12_r1 0.0
y13_r1 -1.2705494208814505e-21
y14_r1 -0.0
y15_r1 0.9999999999999996
SH3_r1 1.0
SL3_r1 -0.0
x16_r1 -0.0
x17_r1 -0.0
x18_r1 -0.0
x19_r1 -0.0
y16_r1 -0.0
y17_r1 2.497984864747657e-16
y18_r1 -0.0
y19_r1 1.387768192869605e-16
SH4_r1 1.5265460709477496e-16
SL4_r1 -0.0
x20_r1 -0.0
x21_r1 -0.0
x22_r1 -0.0
x23_r1 9.367464418627396e-17
y20_r1 -0.0
y21_r1 -0.0
y22_r1 -0.0
y23_r1 9.367475006539236e-17
SH5_r1 9.367475006539236e-17
SL5_r1 -0.0
x24_r1 -0.0
x25_r1 -0.0
x26_r1 0.0
x27_r1 -0.0
y24_r1 -0.0
y25_r1 -0.0
y26_r1 -0.0
y27_r1 -0.0
SH6_r1 -0.0
SL6_r1 -0.0
x28_r1 -0.0
x29_r1 -0.0
x30_r1 0.0
x31_r1 -0.0
y28_r1 -0.0
y29_r1 0.0
y30_r1 -0.0
y31_r1 -0.0
SH7_r1 0.0
SL7_r1 -0.0
x32_r1 -0.0
x33_r1 -0.0
x34_r1 -0.0
x35_r1 -0.0
y32_r1 8.673564440324832e-18
y33_r1 2.7755403562061502e-17
y34_r1 -0.0
y35_r1 0.0
SH8_r1 9.324082435093685e-18
SL8_r1 -0.0
x36_r1 -0.0
x37_r1 -0.0
x38_r1 0.0
x39_r1 -0.0
y36_r1 -0.0
y37_r1 -0.0
y38_r1 -0.0
y39_r1 0.0
SH9_r1 0.0
SL9_r1 -0.0
x40_r1 -0.0
x41_r1 -0.0
x42_r1 -0.0
x43_r1 -0.0
y40_r1 -0.0
y41_r1 -0.0
y42_r1 -0.0
y43_r1 -0.0
SH10_r1 -0.0
SL10_r1 -0.0
x44_r1 -0.0
x45_r1 0.0
x46_r1 -0.0
x47_r1 -0.0
y44_r1 -0.0
y45_r1 0.0
y46_r1 -0.0
y47_r1 -0.0
SH11_r1 0.0
SL11_r1 -0.0
x48_r1 0.0
x49_r1 0.0
x50_r1 0.0
x51_r1 0.0
y48_r1 -0.0
y49_r1 -0.0
y50_r1 -0.0
y51_r1 -0.0
SH12_r1 0.0
SL12_r1 -0.0
x52_r1 -0.0
x53_r1 5.2042074856218637e-17
x54_r1 8.326720330291957e-17
x55_r1 -0.0
y52_r1 -0.0
y53_r1 3.642964298176618e-17
y54_r1 -0.0
y55_r1 2.1510698157054496e-16
SH13_r1 1.1449243762873891e-16
SL13_r1 -0.0
x56_r1 -0.0
x57_r1 7.133873278303533e-17
x58_r1 -0.0
x59_r1 -0.0
y56_r1 -1.4267746556607066e-16
y57_r1 -0.0
y58_r1 0.0
y59_r1 0.0
SH14_r1 -0.0
SL14_r1 -0.0
x60_r1 -0.0
x61_r1 1.0
x62_r1 -0.0
x63_r1 1.0
y60_r1 0.0
y61_r1 0.0
y62_r1 0.0
y63_r1 1.0
SH15_r1 1.0
SL15_r1 1.0
y0_r2 -0.0
y1_r2 0.0
y2_r2 -0.0
y3_r2 -0.0
SH0_r2 -0.0
SL0_r2 -0.0
y4_r2 -0.0
y5_r2 -0.0
y6_r2 -0.0
y7_r2 -0.0
SH1_r2 0.0
SL1_r2 0.0
y8_r2 -0.0
y9_r2 -0.0
y10_r2 -0.0
y11_r2 -1.4094537252444177e-18
SH2_r2 -1.4094537252444177e-18
SL2_r2 1.4094537252444177e-18
y12_r2 -0.0
y13_r2 -0.0
y14_r2 -1.0364716673843776e-16
y15_r2 -0.0
SH3_r2 -7.155557735343549e-18
SL3_r2 -0.0
y16_r2 -0.0
y17_r2 0.0
y18_r2 -0.0
y19_r2 -0.0
SH4_r2 -0.0
SL4_r2 -0.0
y20_r2 -0.0
y21_r2 -0.0
y22_r2 1.3877724280343413e-16
y23_r2 -0.0
SH5_r2 1.2489945499561967e-16
SL5_r2 5.5510621835665793e-17
y24_r2 -0.0
y25_r2 -0.0
y26_r2 3.4690499052595887e-18
y27_r2 1.9081640598389658e-17
SH6_r2 1.994900233637806e-17
SL6_r2 -0.0
y28_r2 -0.0
y29_r2 -0.0
y30_r2 -0.0
y31_r2 -0.0
SH7_r2 -0.0
SL7_r2 -0.0
y32_r2 -0.0
y33_r2 -0.0
y34_r2 -0.0
y35_r2 0.0
SH8_r2 0.0
SL8_r2 -0.0
y36_r2 -0.0
y37_r2 -0.0
y38_r2 0.0
y39_r2 0.0
SH9_r2 -0.0
SL9_r2 -0.0
y40_r2 -0.0
y41_r2 -0.0
y42_r2 0.0
y43_r2 -0.0
SH10_r2 0.0
SL10_r2 -0.0
y44_r2 -0.0
y45_r2 -0.0
y46_r2 0.0
y47_r2 -0.0
SH11_r2 0.0
SL11_r2 -0.0
y48_r2 0.9999999999999996
y49_r2 -0.0
y50_r2 0.0
y51_r2 0.9999999999999996
SH12_r2 0.9999999999999996
SL12_r2 -0.0
y52_r2 3.330656368381261e-16
y53_r2 -0.0
y54_r2 8.32660915721763e-17
y55_r2 -0.0
SH13_r2 8.32660915721763e-17
SL13_r2 8.673749728782044e-18
y56_r2 -0.0
y57_r2 -0.0
y58_r2 0.0
y59_r2 -0.0
SH14_r2 0.0
SL14_r2 0.0
y60_r2 0.9999999999999998
y61_r2 -0.0
y62_r2 2.359264161393452e-16
y63_r2 0.9999999999999996
SH15_r2 1.0
SL15_r2 2.77553638573921e-16
y0_r3 -0.0
y1_r3 -0.0
y2_r3 -0.0
y3_r3 -0.0
SH0_r3 -0.0
SL0_r3 -0.0
y4_r3 -0.0
y5_r3 -0.0
y6_r3 -0.0
y7_r3 -0.0
SH1_r3 -0.0
SL1_r3 -0.0
y8_r3 -0.0
y9_r3 -0.0
y10_r3 -0.0
y11_r3 -0.0
SH2_r3 -0.0
SL2_r3 -0.0
y12_r3 0.0
y13_r3 1.0
y14_r3 -0.0
y15_r3 -0.0
SH3_r3 1.0
SL3_r3 -0.0
y16_r3 -0.0
y17_r3 -0.0
y18_r3 -0.0
y19_r3 -0.0
SH4_r3 -0.0
SL4_r3 -0.0
y20_r3 -0.0
y21_r3 -0.0
y22_r3 -0.0
y23_r3 -0.0
SH5_r3 -0.0
SL5_r3 -0.0
y24_r3 -0.0
y25_r3 -0.0
y26_r3 -0.0
y27_r3 -0.0
SH6_r3 0.0
SL6_r3 -0.0
y28_r3 -0.0
y29_r3 -0.0
y30_r3 -0.0
y31_r3 -0.0
SH7_r3 0.0
SL7_r3 -0.0
y32_r3 -1.0339034767231924e-15
y33_r3 -6.071533754105601e-16
y34_r3 -2.8883591890800127e-16
y35_r3 2.0816575832603278e-17
SH8_r3 -3.903128615041204e-16
SL8_r3 -0.0
y36_r3 1.2490030202856692e-16
y37_r3 1.5265481885301177e-16
y38_r3 -0.0
y39_r3 1.2489903147914604e-16
SH9_r3 1.3877703104519731e-16
SL9_r3 -0.0
y40_r3 0.0
y41_r3 0.0
y42_r3 -0.0
y43_r3 0.0
SH10_r3 0.0
SL10_r3 -0.0
y44_r3 2.2204799305682033e-16
y45_r3 3.0531429638723344e-16
y46_r3 -0.0
y47_r3 2.77553638573921e-17
SH11_r3 3.0531429638723344e-16
SL11_r3 1.9429262919942823e-16
y48_r3 -2.7105302466321377e-19
y49_r3 -5.4208288826927605e-19
y50_r3 -0.0
y51_r3 -0.0
SH12_r3 -5.4208288826927605e-19
SL12_r3 -1.1925744132585268e-18
y52_r3 2.4096505366463337e-17
y53_r3 2.0816364074366465e-17
y54_r3 -0.0
y55_r3 1.2142984922498845e-17
SH13_r3 1.994900233637806e-17
SL13_r3 -0.0
y56_r3 0.0
y57_r3 0.0
y58_r3 -0.0
y59_r3 -0.0
SH14_r3 0.0
SL14_r3 0.0
y60_r3 -3.957160085740392e-18
y61_r3 0.9999999999999998
y62_r3 -0.0
y63_r3 -0.0
SH15_r3 0.9999999999999996
SL15_r3 -0.0
y0_r4 0.0
y1_r4 0.0
y2_r4 -0.0
y3_r4 0.0
SH0_r4 -0.0
SL0_r4 -0.0
y4_r4 -0.0
y5_r4 -0.0
y6_r4 -0.0
y7_r4 -0.0
SH1_r4 0.0
SL1_r4 -0.0
y8_r4 -1.1621185213707708e-18
y9_r4 1.3877703104519731e-16
y10_r4 0.0
y11_r4 -0.0
SH2_r4 2.2204799305682033e-16
SL2_r4 -0.0
y12_r4 1.2452963386578185e-17
y13_r4 -0.0
y14_r4 -0.0
y15_r4 -0.0
SH3_r4 -3.794593452774733e-18
SL3_r4 -0.0
y16_r4 1.0
y17_r4 2.7754220362913307e-16
y18_r4 1.318322079106593e-16
y19_r4 1.0
SH4_r4 1.0
SL4_r4 -0.0
y20_r4 -0.0
y21_r4 -0.0
y22_r4 -0.0
y23_r4 -0.0
SH5_r4 -0.0
SL5_r4 -0.0
y24_r4 -5.551030419831057e-17
y25_r4 -2.2203782866145327e-16
y26_r4 -3.3306944848638873e-16
y27_r4 -5.551030419831057e-17
SH6_r4 -5.551030419831057e-17
SL6_r4 -0.0
y28_r4 0.9999999999999998
y29_r4 5.550844072582661e-16
y30_r4 -1.6940658945086007e-21
y31_r4 1.0
SH7_r4 1.0
SL7_r4 -0.0
y32_r4 0.0
y33_r4 0.0
y34_r4 -0.0
y35_r4 0.0
SH8_r4 0.0
SL8_r4 -0.0
y36_r4 0.0
y37_r4 0.0
y38_r4 0.0
y39_r4 0.0
SH9_r4 -0.0
SL9_r4 -0.0
y40_r4 -3.0358719620778192e-18
y41_r4 2.8623372781491765e-16
y42_r4 -0.0
y43_r4 6.29659858073552e-17
SH10_r4 6.29659858073552e-17
SL10_r4 -0.0
y44_r4 -1.3878264263847287e-17
y45_r4 -1.6653895940793063e-16
y46_r4 -0.0
y47_r4 -0.0
SH11_r4 -5.551337469274437e-17
SL11_r4 -5.551337469274437e-17
y48_r4 -0.0
y49_r4 -0.0
y50_r4 -0.0
y51_r4 -0.0
SH12_r4 -0.0
SL12_r4 -0.0
y52_r4 0.0
y53_r4 -0.0
y54_r4 -0.0
y55_r4 -0.0
SH13_r4 -0.0
SL13_r4 -0.0
y56_r4 -1.7347340638886478e-17
y57_r4 9.714409113822757e-17
y58_r4 0.0
y59_r4 -0.0
SH14_r4 2.77553638573921e-17
SL14_r4 -0.0
y60_r4 1.0408234976742436e-17
y61_r4 2.0816549362823677e-17
y62_r4 -0.0
y63_r4 -0.0
SH15_r4 8.673564440324832e-18
SL15_r4 1.1275676124069644e-17
y0_r5 1.129084488459446e-17
y1_r5 -1.2646085483297836e-18
y2_r5 -0.0
y3_r5 0.0
SH0_r5 5.219368773086832e-18
SL0_r5 -0.0
y4_r5 1.3877576049577643e-16
y5_r5 1.0
y6_r5 -0.0
y7_r5 5.550776309946881e-17
SH1_r5 1.0
SL1_r5 -0.0
y8_r5 -1.5613120088722103e-17
y9_r5 -8.673961487018858e-18
y10_r5 -0.0
y11_r5 -0.0
SH2_r5 -1.2143514318090879e-17
SL2_r5 -2.818962044409264e-18
y12_r5 -1.7347340638886478e-17
y13_r5 -3.122507550714173e-17
y14_r5 -0.0
y15_r5 -0.0
SH3_r5 -1.7347340638886478e-17
SL3_r5 -8.673643849663637e-18
y16_r5 -0.0
y17_r5 1.3877703104519731e-16
y18_r5 1.2489924323738286e-16
y19_r5 -0.0
SH4_r5 1.3877703104519731e-16
SL4_r5 1.0408256152566117e-16
y20_r5 -0.0
y21_r5 7.216449660063518e-16
y22_r5 2.4978662801350415e-16
y23_r5 -0.0
SH5_r5 2.4978662801350415e-16
SL5_r5 -2.2207170997934345e-16
y24_r5 -0.0
y25_r5 1.1102103191309477e-16
y26_r5 1.2489924323738286e-16
y27_r5 0.0
SH6_r5 1.110214554295684e-16
SL6_r5 2.7929508537391664e-16
y28_r5 -0.0
y29_r5 9.714387937999076e-17
y30_r5 1.2489945499561967e-16
y31_r5 0.0
SH7_r5 1.2489945499561967e-16
SL7_r5 9.714387937999076e-17
y32_r5 -0.0
y33_r5 0.0
y34_r5 0.0
y35_r5 -0.0
SH8_r5 0.0
SL8_r5 0.0
y36_r5 8.32646092645186e-17
y37_r5 -0.0
y38_r5 -8.326672684688674e-17
y39_r5 1.1101552619893762e-16
SH9_r5 -8.326672684688674e-17
SL9_r5 -5.551081241807893e-16
y40_r5 -0.0
y41_r5 0.0
y42_r5 0.0
y43_r5 -0.0
SH10_r5 -0.0
SL10_r5 -0.0
y44_r5 0.0
y45_r5 0.0
y46_r5 0.0
y47_r5 -0.0
SH11_r5 0.0
SL11_r5 0.0
y48_r5 -0.0
y49_r5 0.0
y50_r5 -0.0
y51_r5 -0.0
SH12_r5 -0.0
SL12_r5 -0.0
y52_r5 1.8041018271040387e-16
y53_r5 0.9999999999999998
y54_r5 2.498001805406602e-16
y55_r5 -0.0
SH13_r5 1.0
SL13_r5 -0.0
y56_r5 2.568489835869186e-16
y57_r5 -0.0
y58_r5 -0.0
y59_r5 -0.0
SH14_r5 5.767994765983919e-17
SL14_r5 -0.0
y60_r5 -0.0
y61_r5 -0.0
y62_r5 -0.0
y63_r5 -0.0
SH15_r5 -0.0
SL15_r5 -0.0
y0_r6 -0.0
y1_r6 2.7755321505744737e-16
y2_r6 -0.0
y3_r6 8.32646092645186e-17
SH0_r6 8.32646092645186e-17
SL0_r6 -8.153136809619949e-17
y4_r6 -0.0
y5_r6 0.0
y6_r6 -0.0
y7_r6 -0.0
SH1_r6 -0.0
SL1_r6 -0.0
y8_r6 -0.0
y9_r6 8.32646092645186e-17
y10_r6 -0.0
y11_r6 8.32646092645186e-17
SH2_r6 8.32646092645186e-17
SL2_r6 -0.0
y12_r6 -0.0
y13_r6 4.3021163380048497e-16
y14_r6 -0.0
y15_r6 5.5509880681836946e-17
SH3_r6 3.0531154353015486e-16
SL3_r6 -0.0
y16_r6 -1.5959455978986625e-16
y17_r6 0.9999999999999998
y18_r6 0.0
y19_r6 1.0
SH4_r6 1.0
SL4_r6 -0.0
y20_r6 7.216449660063518e-16
y21_r6 7.216627536982441e-16
y22_r6 -0.0
y23_r6 7.216288723803539e-16
SH5_r6 7.216449660063518e-16
SL5_r6 -0.0
y24_r6 0.0
y25_r6 0.0
y26_r6 -0.0
y27_r6 -0.0
SH6_r6 0.0
SL6_r6 0.0
y28_r6 -8.049116928532385e-16
y29_r6 0.9999999999999998
y30_r6 0.0
y31_r6 1.0
SH7_r6 1.0
SL7_r6 1.795435356564647e-16
y32_r6 -0.0
y33_r6 -0.0
y34_r6 -0.0
y35_r6 -0.0
SH8_r6 -0.0
SL8_r6 -0.0
y36_r6 -0.0
y37_r6 2.7755575615628914e-16
y38_r6 5.134781488891349e-16
y39_r6 -0.0
SH9_r6 5.134645963619788e-16
SL9_r6 2.7754220362913307e-16
y40_r6 -0.0
y41_r6 -8.327350311046477e-17
y42_r6 -8.327350311046477e-17
y43_r6 -0.0
SH10_r6 -8.327350311046477e-17
SL10_r6 -8.327350311046477e-17
y44_r6 -0.0
y45_r6 2.498001805406602e-16
y46_r6 2.7755575615628914e-16
y47_r6 -0.0
SH11_r6 2.498001805406602e-16
SL11_r6 2.498001805406602e-16
y48_r6 2.7752187483839896e-17
y49_r6 0.0
y50_r6 -3.3881317890172014e-21
y51_r6 -0.0
SH12_r6 2.7752187483839896e-17
SL12_r6 -3.3881317890172014e-21
y52_r6 0.0
y53_r6 0.0
y54_r6 -0.0
y55_r6 -0.0
SH13_r6 0.0
SL13_r6 0.0
y56_r6 1.1101552619893762e-16
y57_r6 0.0
y58_r6 1.1101891433072664e-16
y59_r6 -0.0
SH14_r6 1.1101552619893762e-16
SL14_r6 1.110121380671486e-16
y60_r6 0.0
y61_r6 -0.0
y62_r6 0.0
y63_r6 -0.0
SH15_r6 -0.0
SL15_r6 -0.0
y0_r7 -0.0
y1_r7 -0.0
y2_r7 -0.0
y3_r7 -0.0
SH0_r7 -0.0
SL0_r7 -0.0
y4_r7 -0.0
y5_r7 1.6652540688077457e-16
y6_r7 -1.6653345369377348e-16
y7_r7 0.0
SH1_r7 -1.6653345369377348e-16
SL1_r7 -1.0130785099704553e-15
y8_r7 -0.0
y9_r7 -0.0
y10_r7 -0.0
y11_r7 -0.0
SH2_r7 -0.0
SL2_r7 -0.0
y12_r7 0.0
y13_r7 1.6652540688077457e-16
y14_r7 1.1101552619893762e-16
y15_r7 -0.0
SH3_r7 1.1101891433072664e-16
SL3_r7 1.1101891433072664e-16
y16_r7 -1.942907233752969e-16
y17_r7 2.7755321505744737e-16
y18_r7 -0.0
y19_r7 -0.0
SH4_r7 2.7755406209039463e-16
SL4_r7 -1.6653472424319436e-16
y20_r7 -2.7755914428807815e-16
y21_r7 1.0
y22_r7 -0.0
y23_r7 0.0
SH5_r7 0.9999999999999998
SL5_r7 -0.0
y24_r7 -2.7755914428807815e-16
y25_r7 5.169408195775105e-16
y26_r7 -0.0
y27_r7 -0.0
SH6_r7 2.7755575615628914e-16
SL6_r7 4.441095386407967e-16
y28_r7 0.0
y29_r7 0.0
y30_r7 -0.0
y31_r7 -0.0
SH7_r7 0.0
SL7_r7 -0.0
y32_r7 -0.0
y33_r7 -0.0
y34_r7 -0.0
y35_r7 -0.0
SH8_r7 -0.0
SL8_r7 -0.0
y36_r7 -0.0
y37_r7 -0.0
y38_r7 -0.0
y39_r7 -0.0
SH9_r7 -0.0
SL9_r7 -0.0
y40_r7 1.664589147944151e-16
y41_r7 -7.355498588684783e-16
y42_r7 -7.806255641895632e-17
y43_r7 8.32585953305931e-16
SH10_r7 -7.81167665275806e-17
SL10_r7 -7.355498588684783e-16
y44_r7 6.245004513516506e-17
y45_r7 1.1100874993535959e-16
y46_r7 2.77528651101977e-16
y47_r7 2.77528651101977e-16
SH11_r7 2.7751509857482093e-16
SL11_r7 1.7345879507052464e-16
y48_r7 -0.0
y49_r7 1.665292185290372e-16
y50_r7 -0.0
y51_r7 -0.0
SH12_r7 8.32646092645186e-17
SL12_r7 2.7754940340918473e-17
y52_r7 -0.0
y53_r7 0.9999999999999994
y54_r7 -2.3201926491189795e-17
y55_r7 0.0
SH13_r7 1.0
SL13_r7 -0.0
y56_r7 -0.0
y57_r7 -0.0
y58_r7 -0.0
y59_r7 -0.0
SH14_r7 -0.0
SL14_r7 -0.0
y60_r7 -0.0
y61_r7 -0.0
y62_r7 -0.0
y63_r7 -0.0
SH15_r7 -0.0
SL15_r7 -0.0
y0_r8 -0.0
y1_r8 -0.0
y2_r8 -0.0
y3_r8 -0.0
SH0_r8 0.0
SL0_r8 -0.0
y4_r8 -0.0
y5_r8 -2.775582972551309e-16
y6_r8 -0.0
y7_r8 -0.0
SH1_r8 -2.7755914428807815e-16
SL1_r8 -9.714536168764845e-17
y8_r8 0.0
y9_r8 7.10863930653699e-17
y10_r8 0.0
y11_r8 8.669890434916117e-17
SH2_r8 1.629894678424615e-16
SL2_r8 7.195036667156929e-17
y12_r8 0.0
y13_r8 0.0
y14_r8 -0.0
y15_r8 -0.0
SH3_r8 -0.0
SL3_r8 -0.0
y16_r8 -7.623296525288703e-21
y17_r8 1.6652540688077457e-16
y18_r8 -0.0
y19_r8 -0.0
SH4_r8 2.220365581120324e-16
SL4_r8 -0.0
y20_r8 2.775726968152342e-17
y21_r8 0.9999999999999998
y22_r8 0.0
y23_r8 1.0000000000000002
SH5_r8 1.0
SL5_r8 -2.220412167932423e-16
y24_r8 -8.327011497867576e-17
y25_r8 4.440892098500626e-16
y26_r8 0.0
y27_r8 4.440892098500626e-16
SH6_r8 -0.0
SL6_r8 -4.440892098500626e-16
y28_r8 -6.938724497317778e-17
y29_r8 0.9999999999999996
y30_r8 -0.0
y31_r8 1.0
SH7_r8 0.9999999999999996
SL7_r8 -0.0
y32_r8 -2.6020852139652106e-16
y33_r8 -1.6653345369377348e-16
y34_r8 0.0
y35_r8 -9.367506770274758e-17
SH8_r8 -1.6653345369377348e-16
SL8_r8 -3.5735303605122226e-16
y36_r8 -0.0
y37_r8 0.0
y38_r8 0.0
y39_r8 -0.0
SH9_r8 0.0
SL9_r8 -0.0
y40_r8 -9.974659986866641e-17
y41_r8 2.5153490401663703e-17
y42_r8 -0.0
y43_r8 -9.367506770274758e-17
SH10_r8 1.8214596497756474e-17
SL10_r8 -3.485709984540897e-17
y44_r8 -6.505213034913027e-17
y45_r8 -6.505213034913027e-17
y46_r8 -0.0
y47_r8 -8.673617379884035e-17
SH11_r8 -6.505213034913027e-17
SL11_r8 -0.0
y48_r8 0.0
y49_r8 0.0
y50_r8 0.0
y51_r8 0.0
SH12_r8 0.0
SL12_r8 -0.0
y52_r8 -0.0
y53_r8 0.0
y54_r8 0.0
y55_r8 -0.0
SH13_r8 0.0
SL13_r8 -0.0
y56_r8 2.7751509857482093e-16
y57_r8 5.550301971496419e-16
y58_r8 2.7751509857482093e-16
y59_r8 0.0
SH14_r8 8.325588482516189e-16
SL14_r8 5.55057302203954e-16
y60_r8 0.0
y61_r8 0.0
y62_r8 -0.0
y63_r8 -0.0
SH15_r8 -0.0
SL15_r8 -0.0
y0_r9 -0.0
y1_r9 0.0
y2_r9 -0.0
y3_r9 -0.0
SH0_r9 0.0
SL0_r9 -0.0
y4_r9 -0.0
y5_r9 5.551888040690152e-17
y6_r9 -0.0
y7_r9 4.163675155523239e-17
SH1_r9 4.163505748933788e-17
SL1_r9 -0.0
y8_r9 -1.5612511283791264e-17
y9_r9 -8.847089727481716e-17
y10_r9 -6.765421556309548e-17
y11_r9 -1.717376241217039e-16
SH2_r9 -2.5673907444456745e-16
SL2_r9 -0.0
y12_r9 -0.0
y13_r9 2.4978662801350415e-16
y14_r9 0.0
y15_r9 2.705762046709137e-16
SH3_r9 2.705762046709137e-16
SL3_r9 -0.0
y16_r9 -0.0
y17_r9 7.108808713126441e-17
y18_r9 -3.33073683651125e-16
y19_r9 7.108808713126441e-17
SH4_r9 7.10863930653699e-17
SL4_r9 -0.0
y20_r9 1.0
y21_r9 1.0
y22_r9 -0.0
y23_r9 -0.0
SH5_r9 1.0
SL5_r9 -0.0
y24_r9 -2.1094237467877974e-15
y25_r9 -2.3314683517128287e-15
y26_r9 -0.0
y27_r9 -2.3314683517128287e-15
SH6_r9 -2.3314683517128287e-15
SL6_r9 -1.8041124150158794e-16
y28_r9 -0.0
y29_r9 5.411795143961395e-16
y30_r9 -0.0
y31_r9 5.55057302203954e-16
SH7_r9 5.550301971496419e-16
SL7_r9 -0.0
y32_r9 -0.0
y33_r9 0.0
y34_r9 -0.0
y35_r9 -0.0
SH8_r9 -0.0
SL8_r9 -0.0
y36_r9 -0.0
y37_r9 0.0
y38_r9 -0.0
y39_r9 -0.0
SH9_r9 0.0
SL9_r9 -0.0
y40_r9 0.0
y41_r9 -0.0
y42_r9 -0.0
y43_r9 0.0
SH10_r9 0.0
SL10_r9 -0.0
y44_r9 2.0813293579932668e-16
y45_r9 2.1507860596681194e-16
y46_r9 -0.0
y47_r9 -0.0
SH11_r9 2.7751509857482093e-16
SL11_r9 2.7751509857482093e-16
y48_r9 -0.0
y49_r9 7.976001044525394e-17
y50_r9 -0.0
y51_r9 8.669890434916117e-17
SH12_r9 8.669890434916117e-17
SL12_r9 0.0
y52_r9 -0.0
y53_r9 1.0
y54_r9 -0.0
y55_r9 -0.0
SH13_r9 1.0
SL13_r9 1.0
y56_r9 -5.117434254131581e-17
y57_r9 1.431146867680866e-17
y58_r9 2.168404344971009e-19
y59_r9 -0.0
SH14_r9 -9.367506770274758e-17
SL14_r9 -0.0
y60_r9 -0.0
y61_r9 0.0
y62_r9 0.0
y63_r9 -0.0
SH15_r9 -0.0
SL15_r9 -0.0
